NAME: random-19-10494
TYPE: TSP
COMMENT: size=19 seed=10494
DIMENSION: 40
EDGE_WEIGHT_TYPE: EUC_2D
NODE_COORD_SECTION
+0 658 146
-0 658 146
+1 690 209
-1 765 504
+2 146 470
-2 832 360
+3 208 534
-3 611 456
+4 717 366
-4 79 781
+5 175 204
-5 786 250
+6 927 639
-6 551 618
+7 949 864
-7 774 338
+8 90 692
-8 712 434
+9 840 367
-9 873 623
+10 674 398
-10 941 449
+11 51 16
-11 316 206
+12 769 745
-12 673 171
+13 487 388
-13 802 751
+14 321 84
-14 793 237
+15 697 786
-15 407 347
+16 303 981
-16 214 608
+17 217 771
-17 874 557
+18 861 339
-18 637 285
+19 644 109
-19 773 432
PRECEDENCE_SECTION
+0 -0
+1 -1
+2 -2
+3 -3
+4 -4
+5 -5
+6 -6
+7 -7
+8 -8
+9 -9
+10 -10
+11 -11
+12 -12
+13 -13
+14 -14
+15 -15
+16 -16
+17 -17
+18 -18
+19 -19
EOF
